 O Ta 
 1.0000000000000000
    32.2048040353147300    0.0000000000000000    0.0000000000000000
    -4.9268727254070592   30.8735108460912926    0.0000000000000000
     0.0000000000000000   -0.0000000000000000   25.7272980219976048
 O   Ta 
 1600 640
Direct
  0.3967961394406833  0.9834510322820468  0.9335419251715514
  0.6116914969310806  0.3870009106999491  0.8313744942073618
  0.5565171329386932  0.3003083970902787  0.8230472355791945
  0.7109184188232973  0.4716178517707857  0.8824832407100430
  0.5291108100000126  0.3513077286869152  0.8978325690358102
  0.5374339418756093  0.4464877681478515  0.8173394477135182
  0.5765868544214781  0.2905507891178511  0.7292070632431719
  0.5214124904290904  0.4538582755081808  0.7208798046150048
  0.6758137763136943  0.3751677301886877  0.7803158097458531
  0.7440061674904098  0.2548576071048174  0.7956651380716202
  0.5023292993660066  0.3500376465657536  0.7151720167493285
  0.7015868544214784  0.2905507891178512  0.7292070632431720
  0.6464124904290902  0.4538582755081806  0.7208798046150047
  0.5508137763136947  0.3751677301886877  0.7803158097458534
  0.6190061674904098  0.2548576071048174  0.7956651380716202
  0.6273292993660066  0.3500376465657538  0.7151720167493285
  0.6664822119118758  0.4441006675357534  0.6270396322789822
  0.6113078479194880  0.3574081539260829  0.6187123736508150
  0.5157091338040920  0.2787176086065899  0.6781483787816635
  0.5839015249808071  0.4084074855227195  0.6934977071074304
  0.5922246568564040  0.2535875249836558  0.6130045857851387
  0.5414822119118756  0.4441006675357533  0.6270396322789823
  0.7363078479194881  0.3574081539260829  0.6187123736508149
  0.6407091338040920  0.2787176086065900  0.6781483787816635
  0.7089015249808072  0.4084074855227195  0.6934977071074305
  0.7172246568564040  0.2535875249836558  0.6130045857851385
  0.6624339418756094  0.4464877681478515  0.8173394477135184
  0.5063775694022730  0.3476505459536552  0.5248722013147925
  0.6541108100000120  0.3513077286869152  0.8978325690358100
  0.6815171329386932  0.3003083970902787  0.8230472355791946
  0.6857846353714750  0.6251575460155934  0.1078752188298661
  0.5901859212560789  0.5464670006961003  0.1673112239607146
  0.6583783124327941  0.6761568776122301  0.1826605522864816
  0.6667014443083911  0.5213369170731663  0.1021674309641898
  0.7058543568542600  0.6153999380431661  0.0140350464938436
  0.6506799928618724  0.5287074244334955  0.0057077878656764
  0.5550812787464763  0.7000168791140025  0.0651437929965247
  0.6232736699231914  0.5797067560301321  0.0804931213222918
  0.6315968017987884  0.6748867954910682  0.0000000000000000
  0.5808543568542601  0.6153999380431660  0.0140350464938437
  0.5256799928618725  0.5287074244334955  0.0057077878656763
  0.6800812787464763  0.7000168791140025  0.0651437929965248
  0.7482736699231914  0.5797067560301321  0.0804931213222918
  0.5065968017987884  0.6748867954910684 -0.0000000000000000
  0.6467961394406834  0.4834510322820468  0.9335419251715514
  0.5916217754482958  0.3967585186723767  0.9252146665433842
  0.7460230613328999  0.3180679733528837  0.9846506716742329
  0.5642154525096148  0.4477578502690134  0.9999999999999999
  0.5725385843852118  0.2929378897299493  0.9195068786777081
  0.5217961394406836  0.4834510322820469  0.9335419251715517
  0.7166217754482958  0.3967585186723765  0.9252146665433841
  0.6210230613329000  0.3180679733528835  0.9846506716742326
  0.6892154525096148  0.4477578502690132  0.9999999999999999
  0.6975385843852117  0.2929378897299495  0.9195068786777079
  0.7366914969310807  0.3870009106999492  0.8313744942073618
  0.5859184188232971  0.4716178517707856  0.8824832407100430
  0.7409589993638627  0.7118500596252637  0.1162024774580335
  0.7012032054098853  0.2609580323439850  0.5165449426866252
  0.6737968824712044  0.3119573639406217  0.5913302761432407
  0.6934829549423968  0.2726069991943280  0.2848279832506714
  0.7018060868179935  0.3677870386552641  0.2043348619283795
  0.6510636418734653  0.3083001812073617  0.2183699084222232
  0.5958892778810776  0.4716076675976913  0.2100426497940559
  0.5002905637656815  0.3929171222781984  0.2694786549249044
  0.5684829549423966  0.2726069991943280  0.2848279832506714
  0.5768060868179937  0.3677870386552642  0.2043348619283795
  0.6159589993638627  0.4618500596252639  0.1162024774580335
  0.5607846353714749  0.3751575460155934  0.1078752188298662
  0.7151859212560788  0.2964670006961004  0.1673112239607145
  0.5333783124327941  0.4261568776122301  0.1826605522864816
  0.5417014443083910  0.2713369170731663  0.1021674309641898
  0.7409589993638627  0.4618500596252638  0.1162024774580335
  0.6857846353714750  0.3751575460155934  0.1078752188298661
  0.5901859212560788  0.2964670006961004  0.1673112239607146
  0.6583783124327940  0.4261568776122301  0.1826605522864816
  0.6667014443083912  0.2713369170731664  0.1021674309641898
  0.7058543568542601  0.3653999380431660  0.0140350464938436
  0.6506799928618724  0.2787074244334955  0.0057077878656764
  0.5550812787464763  0.4500168791140025  0.0651437929965247
  0.6232736699231913  0.3297067560301322  0.0804931213222918
  0.6315968017987883  0.4248867954910683  0.0000000000000000
  0.5808543568542600  0.3653999380431659  0.0140350464938437
  0.5256799928618724  0.2787074244334954  0.0057077878656763
  0.6800812787464762  0.4500168791140025  0.0651437929965248
  0.6252905637656815  0.3929171222781984  0.2694786549249043
  0.6056044912944895  0.4322674870244920  0.5759809478174737
  0.7208892778810777  0.4716076675976912  0.2100426497940559
  0.7369107293275964  0.4642371602373622  0.3065022928925693
  0.6821200143468013  0.4071374034015578  0.5108371548209488
  0.6313775694022730  0.3476505459536554  0.5248722013147925
  0.5762032054098855  0.2609580323439848  0.5165449426866251
  0.7306044912944895  0.4322674870244920  0.5759809478174737
  0.5487968824712044  0.3119573639406217  0.5913302761432406
  0.5571200143468016  0.4071374034015579  0.5108371548209488
  0.5962729268926705  0.2512004243715577  0.4227047703506027
  0.5410985629002828  0.4145079107618870  0.4143775117224354
  0.6954998487848866  0.3358173654423940  0.4738135168532838
  0.5136922399616020  0.4655072423585238  0.4891628451790509
  0.5220153718371987  0.3106872818194599  0.4086697238567590
  0.7212729268926705  0.2512004243715575  0.4227047703506027
  0.6660985629002828  0.4145079107618871  0.4143775117224354
  0.5704998487848866  0.3358173654423942  0.4738135168532840
  0.6386922399616018  0.4655072423585238  0.4891628451790509
  0.6470153718371990  0.3106872818194601  0.4086697238567591
  0.6861682843830678  0.4047503027894597  0.3205373393864129
  0.6309939203906801  0.3180577891797892  0.3122100807582457
  0.5353952062752840  0.4893672438602962  0.3716460858890941
  0.6035875974519993  0.3690571207764259  0.3869954142148611
  0.6119107293275963  0.4642371602373621  0.3065022928925693
  0.5611682843830679  0.4047503027894597  0.3205373393864130
  0.5059939203906803  0.3180577891797892  0.3122100807582457
  0.6603952062752840  0.4893672438602962  0.3716460858890941
  0.7285875974519993  0.3690571207764258  0.3869954142148611
  0.5260636418734653  0.3083001812073619  0.2183699084222232
  0.5417014443083910  0.5213369170731663  0.1021674309641898
  0.5333783124327941  0.6761568776122301  0.1826605522864816
  0.7151859212560788  0.5464670006961004  0.1673112239607145
  0.7482736699231914  0.8297067560301321  0.0804931213222918
  0.5065968017987884  0.9248867954910683 -0.0000000000000000
  0.6467961394406835  0.7334510322820468  0.9335419251715514
  0.5916217754482958  0.6467585186723767  0.9252146665433842
  0.7460230613329000  0.5680679733528837  0.9846506716742329
  0.5642154525096148  0.6977578502690134  0.9999999999999999
  0.5725385843852118  0.5429378897299492  0.9195068786777081
  0.5217961394406836  0.7334510322820469  0.9335419251715517
  0.7166217754482959  0.6467585186723765  0.9252146665433841
  0.6210230613329001  0.5680679733528835  0.9846506716742326
  0.6892154525096148  0.6977578502690132  0.9999999999999999
  0.6975385843852118  0.5429378897299494  0.9195068786777079
  0.7366914969310807  0.6370009106999492  0.8313744942073618
  0.6815171329386933  0.5503083970902786  0.8230472355791946
  0.5859184188232971  0.7216178517707855  0.8824832407100430
  0.6541108100000121  0.6013077286869153  0.8978325690358100
  0.6624339418756094  0.6964877681478515  0.8173394477135184
  0.6116914969310807  0.6370009106999491  0.8313744942073618
  0.5565171329386931  0.5503083970902786  0.8230472355791945
  0.7109184188232973  0.7216178517707857  0.8824832407100430
  0.5291108100000126  0.6013077286869153  0.8978325690358102
  0.5374339418756093  0.6964877681478515  0.8173394477135182
  0.5765868544214781  0.5405507891178511  0.7292070632431719
  0.5214124904290904  0.7038582755081807  0.7208798046150048
  0.6758137763136944  0.6251677301886877  0.7803158097458531
  0.6800812787464762  0.9500168791140025  0.0651437929965248
  0.7440061674904097  0.5048576071048174  0.7956651380716202
  0.5256799928618724  0.7787074244334955  0.0057077878656763
  0.6315968017987883  0.9248867954910683  0.0000000000000000
  0.7369107293275964  0.9642371602373622  0.3065022928925693
  0.5260636418734652  0.8083001812073618  0.2183699084222232
  0.7208892778810777  0.9716076675976911  0.2100426497940559
  0.6252905637656814  0.8929171222781984  0.2694786549249043
  0.6934829549423966  0.7726069991943280  0.2848279832506714
  0.7018060868179935  0.8677870386552641  0.2043348619283795
  0.6510636418734653  0.8083001812073617  0.2183699084222232
  0.5958892778810775  0.9716076675976912  0.2100426497940559
  0.5002905637656814  0.8929171222781984  0.2694786549249044
  0.5684829549423966  0.7726069991943280  0.2848279832506714
  0.5768060868179937  0.8677870386552642  0.2043348619283795
  0.6159589993638627  0.9618500596252638  0.1162024774580335
  0.5607846353714749  0.8751575460155934  0.1078752188298662
  0.7151859212560787  0.7964670006961004  0.1673112239607145
  0.5333783124327941  0.9261568776122302  0.1826605522864816
  0.5417014443083910  0.7713369170731663  0.1021674309641898
  0.7409589993638626  0.9618500596252638  0.1162024774580335
  0.6857846353714749  0.8751575460155934  0.1078752188298661
  0.5901859212560788  0.7964670006961003  0.1673112239607146
  0.6583783124327940  0.9261568776122301  0.1826605522864816
  0.6667014443083911  0.7713369170731663  0.1021674309641898
  0.7058543568542600  0.8653999380431661  0.0140350464938436
  0.6506799928618724  0.7787074244334955  0.0057077878656764
  0.5550812787464762  0.9500168791140025  0.0651437929965247
  0.6232736699231913  0.8297067560301321  0.0804931213222918
  0.5808543568542600  0.8653999380431658  0.0140350464938437
  0.5023292993660066  0.6000376465657536  0.7151720167493285
  0.7015868544214783  0.5405507891178513  0.7292070632431720
  0.6464124904290902  0.7038582755081806  0.7208798046150047
  0.5704998487848866  0.5858173654423940  0.4738135168532840
  0.6386922399616018  0.7155072423585238  0.4891628451790509
  0.6470153718371990  0.5606872818194601  0.4086697238567591
  0.6861682843830678  0.6547503027894597  0.3205373393864129
  0.6309939203906800  0.5680577891797891  0.3122100807582457
  0.5353952062752840  0.7393672438602962  0.3716460858890941
  0.6035875974519993  0.6190571207764258  0.3869954142148611
  0.6119107293275963  0.7142371602373621  0.3065022928925693
  0.5611682843830679  0.6547503027894597  0.3205373393864130
  0.5059939203906803  0.5680577891797891  0.3122100807582457
  0.6603952062752839  0.7393672438602962  0.3716460858890941
  0.7285875974519992  0.6190571207764258  0.3869954142148611
  0.7369107293275965  0.7142371602373622  0.3065022928925693
  0.5260636418734652  0.5583001812073618  0.2183699084222232
  0.7208892778810777  0.7216076675976912  0.2100426497940559
  0.6252905637656814  0.6429171222781983  0.2694786549249043
  0.6934829549423968  0.5226069991943281  0.2848279832506714
  0.7018060868179936  0.6177870386552641  0.2043348619283795
  0.6510636418734653  0.5583001812073617  0.2183699084222232
  0.5958892778810776  0.7216076675976913  0.2100426497940559
  0.5002905637656815  0.6429171222781983  0.2694786549249044
  0.5684829549423966  0.5226069991943281  0.2848279832506714
  0.5768060868179937  0.6177870386552642  0.2043348619283795
  0.6159589993638628  0.7118500596252638  0.1162024774580335
  0.5607846353714749  0.6251575460155934  0.1078752188298662
  0.6660985629002828  0.6645079107618871  0.4143775117224354
  0.7212729268926705  0.5012004243715575  0.4227047703506027
  0.5220153718371987  0.5606872818194599  0.4086697238567590
  0.5136922399616020  0.7155072423585238  0.4891628451790509
  0.5508137763136947  0.6251677301886877  0.7803158097458534
  0.6190061674904097  0.5048576071048174  0.7956651380716202
  0.6273292993660065  0.6000376465657538  0.7151720167493285
  0.6664822119118758  0.6941006675357534  0.6270396322789822
  0.6113078479194879  0.6074081539260829  0.6187123736508150
  0.5157091338040920  0.5287176086065899  0.6781483787816635
  0.5839015249808072  0.6584074855227195  0.6934977071074304
  0.5922246568564040  0.5035875249836558  0.6130045857851387
  0.5414822119118755  0.6941006675357532  0.6270396322789823
  0.7363078479194880  0.6074081539260829  0.6187123736508149
  0.6407091338040920  0.5287176086065900  0.6781483787816635
  0.7089015249808073  0.6584074855227195  0.6934977071074305
  0.7482736699231914  0.3297067560301322  0.0804931213222918
  0.7172246568564039  0.5035875249836558  0.6130045857851385
  0.7012032054098853  0.5109580323439850  0.5165449426866252
  0.6056044912944893  0.6822674870244920  0.5759809478174737
  0.6737968824712044  0.5619573639406217  0.5913302761432407
  0.6821200143468014  0.6571374034015577  0.5108371548209488
  0.6313775694022730  0.5976505459536553  0.5248722013147925
  0.5762032054098853  0.5109580323439848  0.5165449426866251
  0.7306044912944893  0.6822674870244920  0.5759809478174737
  0.5487968824712044  0.5619573639406217  0.5913302761432406
  0.5571200143468016  0.6571374034015579  0.5108371548209488
  0.5962729268926705  0.5012004243715577  0.4227047703506027
  0.5410985629002828  0.6645079107618870  0.4143775117224354
  0.6954998487848866  0.5858173654423940  0.4738135168532838
  0.5063775694022730  0.5976505459536552  0.5248722013147925
  0.5065968017987884  0.4248867954910684 -0.0000000000000000
  0.6467961394406833  0.2334510322820469  0.9335419251715514
  0.5916217754482959  0.1467585186723767  0.9252146665433842
  0.2987968824712044  0.8119573639406217  0.5913302761432406
  0.3071200143468015  0.9071374034015578  0.5108371548209488
  0.3462729268926705  0.7512004243715577  0.4227047703506027
  0.2910985629002827  0.9145079107618870  0.4143775117224354
  0.4454998487848865  0.8358173654423939  0.4738135168532838
  0.2636922399616019  0.9655072423585238  0.4891628451790509
  0.2720153718371987  0.8106872818194598  0.4086697238567590
  0.4712729268926706  0.7512004243715575  0.4227047703506027
  0.4160985629002828  0.9145079107618871  0.4143775117224354
  0.3204998487848866  0.8358173654423942  0.4738135168532840
  0.3886922399616018  0.9655072423585238  0.4891628451790509
  0.3970153718371990  0.8106872818194600  0.4086697238567591
  0.4361682843830678  0.9047503027894597  0.3205373393864129
  0.3809939203906801  0.8180577891797891  0.3122100807582457
  0.2853952062752840  0.9893672438602962  0.3716460858890941
  0.3535875974519993  0.8690571207764259  0.3869954142148611
  0.3619107293275963  0.9642371602373621  0.3065022928925693
  0.3111682843830678  0.9047503027894597  0.3205373393864130
  0.2559939203906802  0.8180577891797891  0.3122100807582457
  0.4103952062752840  0.9893672438602962  0.3716460858890941
  0.4785875974519992  0.8690571207764257  0.3869954142148611
  0.4869107293275963  0.9642371602373622  0.3065022928925693
  0.2760636418734653  0.8083001812073618  0.2183699084222232
  0.4708892778810776  0.9716076675976911  0.2100426497940559
  0.3752905637656814  0.8929171222781984  0.2694786549249043
  0.4806044912944894  0.9322674870244920  0.5759809478174737
  0.4434829549423968  0.7726069991943280  0.2848279832506714
  0.3262032054098853  0.7609580323439848  0.5165449426866251
  0.4321200143468014  0.9071374034015578  0.5108371548209488
  0.2874339418756093  0.9464877681478514  0.8173394477135182
  0.3265868544214781  0.7905507891178511  0.7292070632431719
  0.2714124904290904  0.9538582755081807  0.7208798046150048
  0.4258137763136944  0.8751677301886877  0.7803158097458531
  0.4940061674904097  0.7548576071048173  0.7956651380716202
  0.2523292993660065  0.8500376465657536  0.7151720167493285
  0.4515868544214783  0.7905507891178513  0.7292070632431720
  0.3964124904290902  0.9538582755081806  0.7208798046150047
  0.3008137763136946  0.8751677301886877  0.7803158097458534
  0.3690061674904097  0.7548576071048173  0.7956651380716202
  0.3773292993660065  0.8500376465657538  0.7151720167493285
  0.4164822119118758  0.9441006675357533  0.6270396322789822
  0.3613078479194880  0.8574081539260829  0.6187123736508150
  0.2657091338040920  0.7787176086065899  0.6781483787816635
  0.3339015249808071  0.9084074855227194  0.6934977071074304
  0.3422246568564040  0.7535875249836558  0.6130045857851387
  0.2914822119118756  0.9441006675357533  0.6270396322789823
  0.4863078479194880  0.8574081539260829  0.6187123736508149
  0.3907091338040920  0.7787176086065900  0.6781483787816635
  0.4589015249808073  0.9084074855227194  0.6934977071074305
  0.4672246568564040  0.7535875249836558  0.6130045857851385
  0.2563775694022730  0.8476505459536552  0.5248722013147925
  0.4512032054098854  0.7609580323439850  0.5165449426866252
  0.3556044912944894  0.9322674870244920  0.5759809478174737
  0.4237968824712043  0.8119573639406217  0.5913302761432407
  0.3813775694022730  0.8476505459536553  0.5248722013147925
  0.4518060868179935  0.8677870386552641  0.2043348619283795
  0.4010636418734653  0.8083001812073617  0.2183699084222232
  0.3458892778810776  0.9716076675976912  0.2100426497940559
  0.3710230613329000  0.5680679733528835  0.9846506716742326
  0.4392154525096148  0.6977578502690132  0.9999999999999999
  0.4475385843852118  0.5429378897299494  0.9195068786777079
  0.4866914969310807  0.6370009106999492  0.8313744942073618
  0.4315171329386933  0.5503083970902786  0.8230472355791946
  0.3359184188232971  0.7216178517707855  0.8824832407100430
  0.4041108100000121  0.6013077286869153  0.8978325690358100
  0.4124339418756093  0.6964877681478515  0.8173394477135184
  0.3616914969310807  0.6370009106999491  0.8313744942073618
  0.3065171329386931  0.5503083970902786  0.8230472355791945
  0.4609184188232973  0.7216178517707857  0.8824832407100430
  0.2791108100000126  0.6013077286869153  0.8978325690358102
  0.2874339418756093  0.6964877681478515  0.8173394477135182
  0.3265868544214781  0.5405507891178511  0.7292070632431719
  0.2714124904290904  0.7038582755081807  0.7208798046150048
  0.4258137763136944  0.6251677301886877  0.7803158097458531
  0.4940061674904098  0.5048576071048174  0.7956651380716202
  0.2523292993660065  0.6000376465657536  0.7151720167493285
  0.4515868544214783  0.5405507891178513  0.7292070632431720
  0.3964124904290902  0.7038582755081806  0.7208798046150047
  0.3008137763136946  0.6251677301886877  0.7803158097458534
  0.3690061674904097  0.5048576071048174  0.7956651380716202
  0.3773292993660065  0.6000376465657538  0.7151720167493285
  0.4164822119118758  0.6941006675357534  0.6270396322789822
  0.3613078479194880  0.6074081539260829  0.6187123736508150
  0.4666217754482958  0.6467585186723765  0.9252146665433841
  0.2717961394406836  0.7334510322820469  0.9335419251715517
  0.3225385843852118  0.5429378897299492  0.9195068786777081
  0.3142154525096149  0.6977578502690134  0.9999999999999999
  0.2502905637656815  0.8929171222781984  0.2694786549249044
  0.3184829549423966  0.7726069991943280  0.2848279832506714
  0.3268060868179937  0.8677870386552642  0.2043348619283795
  0.3659589993638627  0.9618500596252638  0.1162024774580335
  0.3107846353714749  0.8751575460155934  0.1078752188298662
  0.4651859212560788  0.7964670006961004  0.1673112239607145
  0.2833783124327941  0.9261568776122302  0.1826605522864816
  0.2917014443083910  0.7713369170731663  0.1021674309641898
  0.4909589993638626  0.9618500596252638  0.1162024774580335
  0.4357846353714749  0.8751575460155934  0.1078752188298661
  0.3401859212560788  0.7964670006961003  0.1673112239607146
  0.4083783124327940  0.9261568776122301  0.1826605522864816
  0.2791108100000125  0.8513077286869153  0.8978325690358102
  0.4167014443083911  0.7713369170731663  0.1021674309641898
  0.4006799928618724  0.7787074244334955  0.0057077878656764
  0.3050812787464762  0.9500168791140025  0.0651437929965247
  0.3732736699231914  0.8297067560301321  0.0804931213222918
  0.3815968017987884  0.9248867954910683  0.0000000000000000
  0.3308543568542601  0.8653999380431658  0.0140350464938437
  0.2756799928618723  0.7787074244334955  0.0057077878656763
  0.4300812787464762  0.9500168791140025  0.0651437929965248
  0.4982736699231913  0.8297067560301321  0.0804931213222918
  0.2565968017987884  0.9248867954910683 -0.0000000000000000
  0.3967961394406834  0.7334510322820468  0.9335419251715514
  0.3416217754482958  0.6467585186723767  0.9252146665433842
  0.4960230613329000  0.5680679733528837  0.9846506716742329
  0.4558543568542601  0.8653999380431661  0.0140350464938436
  0.7285875974519992  0.8690571207764257  0.3869954142148611
  0.4609184188232973  0.9716178517707856  0.8824832407100430
  0.3616914969310807  0.8870009106999491  0.8313744942073618
  0.6113078479194880  0.1074081539260829  0.6187123736508150
  0.5157091338040919  0.0287176086065899  0.6781483787816635
  0.5839015249808071  0.1584074855227195  0.6934977071074304
  0.5922246568564040  0.0035875249836558  0.6130045857851387
  0.5414822119118755  0.1941006675357533  0.6270396322789823
  0.7363078479194880  0.1074081539260829  0.6187123736508149
  0.6407091338040920  0.0287176086065900  0.6781483787816635
  0.7089015249808073  0.1584074855227195  0.6934977071074305
  0.7172246568564040  0.0035875249836558  0.6130045857851385
  0.5063775694022730  0.0976505459536553  0.5248722013147925
  0.7012032054098853  0.0109580323439850  0.5165449426866252
  0.6056044912944893  0.1822674870244920  0.5759809478174737
  0.6737968824712043  0.0619573639406217  0.5913302761432407
  0.6821200143468014  0.1571374034015578  0.5108371548209488
  0.6313775694022730  0.0976505459536554  0.5248722013147925
  0.5762032054098853  0.0109580323439848  0.5165449426866251
  0.7306044912944893  0.1822674870244920  0.5759809478174737
  0.5487968824712044  0.0619573639406217  0.5913302761432406
  0.5571200143468016  0.1571374034015579  0.5108371548209488
  0.5962729268926705  0.0012004243715577  0.4227047703506027
  0.5410985629002828  0.1645079107618870  0.4143775117224354
  0.6954998487848865  0.0858173654423940  0.4738135168532838
  0.5136922399616020  0.2155072423585238  0.4891628451790509
  0.5220153718371986  0.0606872818194599  0.4086697238567590
  0.7212729268926705  0.0012004243715575  0.4227047703506027
  0.6664822119118758  0.1941006675357534  0.6270396322789822
  0.6660985629002828  0.1645079107618871  0.4143775117224354
  0.6273292993660065  0.1000376465657538  0.7151720167493285
  0.5508137763136947  0.1251677301886878  0.7803158097458534
  0.7460230613329000  0.0680679733528837  0.9846506716742329
  0.5642154525096148  0.1977578502690134  0.9999999999999999
  0.5725385843852118  0.0429378897299493  0.9195068786777081
  0.5217961394406836  0.2334510322820470  0.9335419251715517
  0.7166217754482959  0.1467585186723765  0.9252146665433841
  0.6210230613329000  0.0680679733528835  0.9846506716742326
  0.6892154525096147  0.1977578502690132  0.9999999999999999
  0.6975385843852118  0.0429378897299495  0.9195068786777079
  0.7366914969310806  0.1370009106999492  0.8313744942073618
  0.6815171329386933  0.0503083970902787  0.8230472355791946
  0.5859184188232971  0.2216178517707856  0.8824832407100430
  0.6541108100000121  0.1013077286869153  0.8978325690358100
  0.6624339418756094  0.1964877681478515  0.8173394477135184
  0.6116914969310807  0.1370009106999491  0.8313744942073618
  0.5565171329386931  0.0503083970902787  0.8230472355791945
  0.7109184188232973  0.2216178517707857  0.8824832407100430
  0.5291108100000126  0.1013077286869153  0.8978325690358102
  0.5374339418756093  0.1964877681478515  0.8173394477135182
  0.5765868544214781  0.0405507891178511  0.7292070632431719
  0.5214124904290904  0.2038582755081808  0.7208798046150048
  0.6758137763136944  0.1251677301886878  0.7803158097458531
  0.7440061674904097  0.0048576071048174  0.7956651380716202
  0.5023292993660065  0.1000376465657536  0.7151720167493285
  0.7015868544214783  0.0405507891178513  0.7292070632431720
  0.6464124904290902  0.2038582755081807  0.7208798046150047
  0.6190061674904097  0.0048576071048174  0.7956651380716202
  0.5704998487848866  0.0858173654423942  0.4738135168532840
  0.6386922399616018  0.2155072423585238  0.4891628451790509
  0.6470153718371990  0.0606872818194601  0.4086697238567591
  0.7058543568542601  0.1153999380431660  0.0140350464938436
  0.6506799928618724  0.0287074244334955  0.0057077878656764
  0.5550812787464763  0.2000168791140025  0.0651437929965247
  0.6232736699231914  0.0797067560301322  0.0804931213222918
  0.6315968017987884  0.1748867954910683  0.0000000000000000
  0.5808543568542601  0.1153999380431660  0.0140350464938437
  0.5256799928618724  0.0287074244334955  0.0057077878656763
  0.6800812787464763  0.2000168791140025  0.0651437929965248
  0.7482736699231914  0.0797067560301322  0.0804931213222918
  0.5065968017987884  0.1748867954910685 -0.0000000000000000
  0.8416217754482956  0.8967585186723767  0.9252146665433842
  0.3416217754482958  0.8967585186723767  0.9252146665433842
  0.4960230613329000  0.8180679733528837  0.9846506716742329
  0.3142154525096147  0.9477578502690134  0.9999999999999999
  0.3225385843852117  0.7929378897299492  0.9195068786777081
  0.2717961394406836  0.9834510322820469  0.9335419251715517
  0.4666217754482958  0.8967585186723765  0.9252146665433841
  0.3710230613329000  0.8180679733528835  0.9846506716742326
  0.4392154525096147  0.9477578502690132  0.9999999999999999
  0.4475385843852118  0.7929378897299494  0.9195068786777079
  0.4866914969310807  0.8870009106999492  0.8313744942073618
  0.4315171329386933  0.8003083970902787  0.8230472355791946
  0.3359184188232971  0.9716178517707856  0.8824832407100430
  0.4041108100000121  0.8513077286869153  0.8978325690358100
  0.4124339418756093  0.9464877681478514  0.8173394477135184
  0.6667014443083911  0.0213369170731664  0.1021674309641898
  0.6583783124327940  0.1761568776122301  0.1826605522864816
  0.5901859212560789  0.0464670006961004  0.1673112239607146
  0.6857846353714750  0.1251575460155934  0.1078752188298661
  0.6861682843830678  0.1547503027894597  0.3205373393864129
  0.6309939203906800  0.0680577891797892  0.3122100807582457
  0.5353952062752840  0.2393672438602962  0.3716460858890941
  0.6035875974519993  0.1190571207764259  0.3869954142148611
  0.6119107293275963  0.2142371602373621  0.3065022928925693
  0.5611682843830679  0.1547503027894597  0.3205373393864130
  0.5059939203906803  0.0680577891797892  0.3122100807582457
  0.6603952062752839  0.2393672438602962  0.3716460858890941
  0.7285875974519992  0.1190571207764258  0.3869954142148611
  0.7369107293275963  0.2142371602373622  0.3065022928925693
  0.5260636418734653  0.0583001812073619  0.2183699084222232
  0.7208892778810777  0.2216076675976912  0.2100426497940559
  0.3065171329386931  0.8003083970902787  0.8230472355791945
  0.6252905637656814  0.1429171222781983  0.2694786549249043
  0.7018060868179935  0.1177870386552641  0.2043348619283795
  0.6510636418734653  0.0583001812073617  0.2183699084222232
  0.5958892778810775  0.2216076675976913  0.2100426497940559
  0.5002905637656814  0.1429171222781983  0.2694786549249044
  0.5684829549423966  0.0226069991943281  0.2848279832506714
  0.5768060868179938  0.1177870386552642  0.2043348619283795
  0.6159589993638628  0.2118500596252638  0.1162024774580335
  0.5607846353714749  0.1251575460155934  0.1078752188298662
  0.7151859212560788  0.0464670006961004  0.1673112239607145
  0.5333783124327942  0.1761568776122301  0.1826605522864816
  0.5417014443083911  0.0213369170731663  0.1021674309641898
  0.7409589993638627  0.2118500596252638  0.1162024774580335
  0.6934829549423968  0.0226069991943281  0.2848279832506714
  0.2657091338040920  0.5287176086065899  0.6781483787816635
  0.6603952062752839  0.9893672438602962  0.3716460858890941
  0.5611682843830678  0.9047503027894597  0.3205373393864130
  0.7987968824712043  0.5619573639406217  0.5913302761432406
  0.8071200143468016  0.6571374034015579  0.5108371548209488
  0.8462729268926705  0.5012004243715577  0.4227047703506027
  0.7910985629002827  0.6645079107618870  0.4143775117224354
  0.9454998487848865  0.5858173654423940  0.4738135168532838
  0.7636922399616020  0.7155072423585238  0.4891628451790509
  0.7720153718371987  0.5606872818194599  0.4086697238567590
  0.9712729268926705  0.5012004243715575  0.4227047703506027
  0.9160985629002827  0.6645079107618871  0.4143775117224354
  0.8204998487848865  0.5858173654423940  0.4738135168532840
  0.8886922399616018  0.7155072423585238  0.4891628451790509
  0.8970153718371990  0.5606872818194601  0.4086697238567591
  0.9361682843830678  0.6547503027894597  0.3205373393864129
  0.8809939203906801  0.5680577891797891  0.3122100807582457
  0.7853952062752840  0.7393672438602962  0.3716460858890941
  0.8535875974519992  0.6190571207764258  0.3869954142148611
  0.8619107293275962  0.7142371602373621  0.3065022928925693
  0.8111682843830679  0.6547503027894597  0.3205373393864130
  0.7559939203906803  0.5680577891797891  0.3122100807582457