 O Ta 
 1.0000000000000000
    32.2048040353147300    0.0000000000000000    0.0000000000000000
    -4.9268727254070592   30.8735108460912926    0.0000000000000000
     0.0000000000000000   -0.0000000000000000   12.5848382992097250
 O   Ta 
 800 320
Direct
  0.3462729268926704  0.7512004243715575  0.8641391604382338
  0.7369107293275963  0.4642371602373621  0.6265853915793189
  0.7285875974519991  0.3690571207764258  0.7911382028068938
  0.6603952062752840  0.4893672438602961  0.7597594329819930
  0.5059939203906801  0.3180577891797891  0.6382538736031060
  0.5611682843830678  0.4047503027894596  0.6552773632451274
  0.6119107293275963  0.4642371602373621  0.6265853915793188
  0.6035875974519992  0.3690571207764258  0.7911382028068938
  0.5353952062752839  0.4893672438602961  0.7597594329819929
  0.6309939203906801  0.3180577891797892  0.6382538736031060
  0.6861682843830675  0.4047503027894596  0.6552773632451275
  0.6470153718371990  0.3106872818194600  0.8354471887724252
  0.6386922399616016  0.4655072423585237  1.0000000000000000
  0.5704998487848865  0.3358173654423940  0.9686212301750993
  0.6660985629002827  0.4145079107618870  0.8471156707962124
  0.7212729268926704  0.2512004243715574  0.8641391604382338
  0.5220153718371987  0.3106872818194599  0.8354471887724251
  0.5136922399616017  0.4655072423585237  1.0000000000000000
  0.6954998487848865  0.3358173654423940  0.9686212301750993
  0.5410985629002827  0.4145079107618869  0.8471156707962125
  0.5962729268926704  0.2512004243715575  0.8641391604382338
  0.5065968017987884  0.6748867954910683  0.0000000000000001
  0.7482736699231914  0.5797067560301321  0.1645528112275749
  0.6800812787464762  0.7000168791140025  0.1331740414026741
  0.5256799928618724  0.5287074244334954  0.0116684820237873
  0.5808543568542601  0.6153999380431660  0.0286919716658087
  0.5260636418734651  0.3083001812073617  0.4464155660520212
  0.6315968017987884  0.6748867954910682  0.0000000000000000
  0.7208892778810777  0.4716076675976912  0.4293920764099998
  0.6934829549423966  0.2726069991943280  0.5822764056137876
  0.7482736699231914  0.3297067560301322  0.1645528112275749
  0.6800812787464762  0.4500168791140025  0.1331740414026741
  0.5256799928618724  0.2787074244334954  0.0116684820237873
  0.5808543568542600  0.3653999380431659  0.0286919716658087
  0.6315968017987883  0.4248867954910683  0.0000000000000000
  0.6232736699231912  0.3297067560301321  0.1645528112275750
  0.5550812787464762  0.4500168791140025  0.1331740414026741
  0.6506799928618723  0.2787074244334954  0.0116684820237873
  0.7058543568542601  0.3653999380431660  0.0286919716658087
  0.6667014443083910  0.2713369170731663  0.2088617971931063
  0.6583783124327940  0.4261568776122301  0.3734146084206811
  0.5901859212560787  0.2964670006961004  0.3420358385957805
  0.6857846353714749  0.3751575460155934  0.2205302792168936
  0.7409589993638626  0.4618500596252638  0.2375537688589150
  0.5417014443083910  0.2713369170731663  0.2088617971931063
  0.5333783124327940  0.4261568776122301  0.3734146084206812
  0.7151859212560787  0.2964670006961004  0.3420358385957805
  0.5607846353714748  0.3751575460155934  0.2205302792168936
  0.6159589993638627  0.4618500596252638  0.2375537688589150
  0.5768060868179936  0.3677870386552642  0.4177235943862127
  0.5684829549423965  0.2726069991943278  0.5822764056137876
  0.5002905637656814  0.3929171222781984  0.5508976357888868
  0.5958892778810775  0.4716076675976912  0.4293920764099998
  0.6510636418734652  0.3083001812073617  0.4464155660520212
  0.7018060868179935  0.3677870386552641  0.4177235943862126
  0.6252905637656815  0.3929171222781982  0.5508976357888867
  0.6232736699231913  0.5797067560301321  0.1645528112275750
  0.5550812787464762  0.7000168791140025  0.1331740414026741
  0.6506799928618724  0.5287074244334955  0.0116684820237873
  0.6861682843830677  0.6547503027894596  0.6552773632451275
  0.6470153718371990  0.5606872818194600  0.8354471887724252
  0.6386922399616016  0.7155072423585237  1.0000000000000000
  0.5704998487848865  0.5858173654423940  0.9686212301750993
  0.6660985629002827  0.6645079107618870  0.8471156707962124
  0.7212729268926704  0.5012004243715574  0.8641391604382338
  0.5220153718371987  0.5606872818194599  0.8354471887724251
  0.5136922399616017  0.7155072423585237  1.0000000000000000
  0.6954998487848864  0.5858173654423940  0.9686212301750993
  0.5410985629002827  0.6645079107618870  0.8471156707962125
  0.5962729268926704  0.5012004243715575  0.8641391604382338
  0.5065968017987883  0.9248867954910683  0.0000000000000001
  0.7482736699231914  0.8297067560301321  0.1645528112275749
  0.6800812787464761  0.9500168791140025  0.1331740414026741
  0.5256799928618724  0.7787074244334954  0.0116684820237873
  0.5808543568542600  0.8653999380431658  0.0286919716658087
  0.6315968017987883  0.9248867954910683  0.0000000000000000
  0.6232736699231913  0.8297067560301321  0.1645528112275750
  0.5550812787464762  0.9500168791140025  0.1331740414026741
  0.6506799928618724  0.7787074244334955  0.0116684820237873
  0.7058543568542600  0.8653999380431661  0.0286919716658087
  0.6667014443083911  0.7713369170731663  0.2088617971931063
  0.6583783124327939  0.9261568776122301  0.3734146084206811
  0.5901859212560787  0.7964670006961004  0.3420358385957805
  0.6857846353714749  0.8751575460155934  0.2205302792168936
  0.6309939203906800  0.5680577891797891  0.6382538736031060
  0.5353952062752839  0.7393672438602961  0.7597594329819929
  0.6035875974519991  0.6190571207764258  0.7911382028068938
  0.6119107293275962  0.7142371602373621  0.6265853915793188
  0.7058543568542600  0.6153999380431660  0.0286919716658087
  0.6667014443083911  0.5213369170731663  0.2088617971931063
  0.6583783124327940  0.6761568776122301  0.3734146084206811
  0.5901859212560788  0.5464670006961004  0.3420358385957805
  0.6857846353714750  0.6251575460155934  0.2205302792168936
  0.7409589993638627  0.7118500596252637  0.2375537688589150
  0.5417014443083910  0.5213369170731662  0.2088617971931063
  0.5333783124327940  0.6761568776122301  0.3734146084206812
  0.7151859212560788  0.5464670006961003  0.3420358385957805
  0.5607846353714749  0.6251575460155934  0.2205302792168936
  0.6159589993638628  0.7118500596252637  0.2375537688589150
  0.5768060868179936  0.6177870386552642  0.4177235943862127
  0.5065968017987884  0.4248867954910684  0.0000000000000001
  0.5684829549423966  0.5226069991943277  0.5822764056137876
  0.5958892778810775  0.7216076675976912  0.4293920764099998
  0.6510636418734653  0.5583001812073617  0.4464155660520212
  0.7018060868179934  0.6177870386552641  0.4177235943862126
  0.6934829549423966  0.5226069991943281  0.5822764056137876
  0.6252905637656814  0.6429171222781983  0.5508976357888867
  0.7208892778810776  0.7216076675976912  0.4293920764099998
  0.5260636418734652  0.5583001812073617  0.4464155660520212
  0.7369107293275963  0.7142371602373622  0.6265853915793189
  0.7285875974519991  0.6190571207764258  0.7911382028068938
  0.6603952062752840  0.7393672438602961  0.7597594329819930
  0.5059939203906801  0.5680577891797890  0.6382538736031060
  0.5611682843830678  0.6547503027894596  0.6552773632451274
  0.5002905637656813  0.6429171222781983  0.5508976357888868
  0.7409589993638626  0.9618500596252638  0.2375537688589150
  0.5962729268926704  0.0012004243715575  0.8641391604382338
  0.6954998487848865  0.0858173654423940  0.9686212301750993
  0.4357846353714748  0.8751575460155934  0.2205302792168936
  0.4909589993638626  0.9618500596252638  0.2375537688589150
  0.2917014443083910  0.7713369170731662  0.2088617971931063
  0.2833783124327940  0.9261568776122301  0.3734146084206812
  0.4651859212560788  0.7964670006961003  0.3420358385957805
  0.3107846353714749  0.8751575460155934  0.2205302792168936
  0.3659589993638627  0.9618500596252638  0.2375537688589150
  0.3268060868179936  0.8677870386552642  0.4177235943862127
  0.3184829549423965  0.7726069991943277  0.5822764056137876
  0.2502905637656814  0.8929171222781984  0.5508976357888868
  0.3458892778810775  0.9716076675976911  0.4293920764099998
  0.4010636418734652  0.8083001812073617  0.4464155660520212
  0.4518060868179934  0.8677870386552641  0.4177235943862126
  0.4434829549423966  0.7726069991943280  0.5822764056137876
  0.3752905637656814  0.8929171222781981  0.5508976357888867
  0.4708892778810776  0.9716076675976911  0.4293920764099998
  0.2760636418734652  0.8083001812073617  0.4464155660520212
  0.4869107293275963  0.9642371602373621  0.6265853915793189
  0.4785875974519991  0.8690571207764257  0.7911382028068938
  0.4103952062752840  0.9893672438602961  0.7597594329819930
  0.2559939203906801  0.8180577891797890  0.6382538736031060
  0.3111682843830677  0.9047503027894596  0.6552773632451274
  0.3619107293275962  0.9642371602373621  0.6265853915793188
  0.3535875974519991  0.8690571207764257  0.7911382028068938
  0.2853952062752839  0.9893672438602961  0.7597594329819929
  0.3401859212560787  0.7964670006961004  0.3420358385957805
  0.3809939203906801  0.8180577891797891  0.6382538736031060
  0.4083783124327939  0.9261568776122301  0.3734146084206811
  0.4558543568542601  0.8653999380431661  0.0286919716658087
  0.3111682843830677  0.6547503027894596  0.6552773632451274
  0.3619107293275962  0.7142371602373621  0.6265853915793188
  0.3535875974519991  0.6190571207764258  0.7911382028068938
  0.2853952062752839  0.7393672438602961  0.7597594329819929
  0.3809939203906801  0.5680577891797891  0.6382538736031060
  0.4361682843830677  0.6547503027894596  0.6552773632451275
  0.3970153718371989  0.5606872818194600  0.8354471887724252
  0.3886922399616017  0.7155072423585237  1.0000000000000000
  0.3204998487848865  0.5858173654423940  0.9686212301750993
  0.4160985629002826  0.6645079107618870  0.8471156707962124
  0.4712729268926705  0.5012004243715574  0.8641391604382338
  0.2720153718371987  0.5606872818194599  0.8354471887724251
  0.2636922399616017  0.7155072423585237  1.0000000000000000
  0.4454998487848865  0.5858173654423940  0.9686212301750993
  0.2910985629002827  0.6645079107618870  0.8471156707962125
  0.3462729268926704  0.5012004243715575  0.8641391604382338
  0.2565968017987884  0.9248867954910683  0.0000000000000001
  0.4982736699231913  0.8297067560301321  0.1645528112275749
  0.4300812787464761  0.9500168791140025  0.1331740414026741
  0.2756799928618724  0.7787074244334954  0.0116684820237873
  0.3308543568542600  0.8653999380431658  0.0286919716658087
  0.3815968017987884  0.9248867954910683  0.0000000000000000
  0.3732736699231913  0.8297067560301321  0.1645528112275750
  0.3050812787464762  0.9500168791140025  0.1331740414026741
  0.4006799928618724  0.7787074244334955  0.0116684820237873
  0.4167014443083911  0.7713369170731663  0.2088617971931063
  0.4361682843830677  0.9047503027894596  0.6552773632451275
  0.3970153718371989  0.8106872818194599  0.8354471887724252
  0.3886922399616017  0.9655072423585237  1.0000000000000000
  0.5002905637656813  0.1429171222781983  0.5508976357888868
  0.5958892778810774  0.2216076675976912  0.4293920764099998
  0.6510636418734652  0.0583001812073617  0.4464155660520212
  0.7018060868179934  0.1177870386552641  0.4177235943862126
  0.6934829549423966  0.0226069991943281  0.5822764056137876
  0.6252905637656814  0.1429171222781982  0.5508976357888867
  0.7208892778810776  0.2216076675976912  0.4293920764099998
  0.5260636418734652  0.0583001812073617  0.4464155660520212
  0.7369107293275963  0.2142371602373621  0.6265853915793189
  0.7285875974519991  0.1190571207764258  0.7911382028068938
  0.6603952062752839  0.2393672438602961  0.7597594329819930
  0.5059939203906801  0.0680577891797891  0.6382538736031060
  0.5611682843830677  0.1547503027894595  0.6552773632451274
  0.6119107293275962  0.2142371602373621  0.6265853915793188
  0.6035875974519991  0.1190571207764258  0.7911382028068938
  0.5353952062752839  0.2393672438602961  0.7597594329819929
  0.6309939203906800  0.0680577891797892  0.6382538736031060
  0.6861682843830675  0.1547503027894596  0.6552773632451275
  0.6470153718371989  0.0606872818194600  0.8354471887724252
  0.6386922399616017  0.2155072423585237  1.0000000000000000
  0.5704998487848865  0.0858173654423940  0.9686212301750993
  0.6660985629002827  0.1645079107618870  0.8471156707962124
  0.7212729268926704  0.0012004243715574  0.8641391604382338
  0.5220153718371986  0.0606872818194599  0.8354471887724251
  0.5136922399616017  0.2155072423585237  1.0000000000000000
  0.5684829549423965  0.0226069991943278  0.5822764056137876
  0.5768060868179937  0.1177870386552642  0.4177235943862127
  0.6159589993638627  0.2118500596252638  0.2375537688589150
  0.5607846353714749  0.1251575460155934  0.2205302792168936
  0.3204998487848864  0.8358173654423939  0.9686212301750993
  0.4160985629002826  0.9145079107618870  0.8471156707962124
  0.4712729268926704  0.7512004243715574  0.8641391604382338
  0.2720153718371987  0.8106872818194598  0.8354471887724251
  0.2636922399616017  0.9655072423585237  1.0000000000000000
  0.4454998487848864  0.8358173654423939  0.9686212301750993
  0.2910985629002826  0.9145079107618869  0.8471156707962125
  0.7910985629002825  0.9145079107618869  0.8471156707962125
  0.5065968017987884  0.1748867954910684  0.0000000000000001
  0.7482736699231914  0.0797067560301322  0.1645528112275749
  0.6800812787464763  0.2000168791140025  0.1331740414026741
  0.5256799928618724  0.0287074244334955  0.0116684820237873
  0.5410985629002827  0.1645079107618869  0.8471156707962125
  0.5808543568542600  0.1153999380431660  0.0286919716658087
  0.6232736699231913  0.0797067560301321  0.1645528112275750
  0.5550812787464763  0.2000168791140025  0.1331740414026741
  0.6506799928618724  0.0287074244334955  0.0116684820237873
  0.7058543568542600  0.1153999380431660  0.0286919716658087
  0.6667014443083911  0.0213369170731663  0.2088617971931063
  0.6583783124327939  0.1761568776122301  0.3734146084206811
  0.5901859212560788  0.0464670006961004  0.3420358385957805
  0.6857846353714749  0.1251575460155934  0.2205302792168936
  0.7409589993638627  0.2118500596252638  0.2375537688589150
  0.5417014443083910  0.0213369170731663  0.2088617971931063
  0.5333783124327940  0.1761568776122301  0.3734146084206812
  0.7151859212560788  0.0464670006961004  0.3420358385957805
  0.6315968017987884  0.1748867954910683  0.0000000000000000
  0.2559939203906801  0.5680577891797890  0.6382538736031060
  0.5417014443083908  0.7713369170731662  0.2088617971931063
  0.7151859212560787  0.7964670006961003  0.3420358385957805
  0.9909589993638627  0.7118500596252637  0.2375537688589150
  0.7917014443083910  0.5213369170731662  0.2088617971931063
  0.7833783124327940  0.6761568776122301  0.3734146084206812
  0.9651859212560787  0.5464670006961003  0.3420358385957805
  0.8107846353714749  0.6251575460155934  0.2205302792168936
  0.8659589993638626  0.7118500596252637  0.2375537688589150
  0.8268060868179936  0.6177870386552642  0.4177235943862127
  0.8184829549423964  0.5226069991943277  0.5822764056137876
  0.7502905637656814  0.6429171222781983  0.5508976357888868
  0.8458892778810774  0.7216076675976912  0.4293920764099998
  0.9010636418734651  0.5583001812073617  0.4464155660520212
  0.9518060868179935  0.6177870386552641  0.4177235943862126
  0.9434829549423965  0.5226069991943281  0.5822764056137876
  0.8752905637656814  0.6429171222781983  0.5508976357888867
  0.9708892778810775  0.7216076675976912  0.4293920764099998
  0.7760636418734652  0.5583001812073617  0.4464155660520212
  0.9869107293275963  0.7142371602373622  0.6265853915793189
  0.9785875974519990  0.6190571207764258  0.7911382028068938
  0.9103952062752839  0.7393672438602961  0.7597594329819930
  0.7559939203906800  0.5680577891797890  0.6382538736031060
  0.8111682843830678  0.6547503027894596  0.6552773632451274
  0.8619107293275960  0.7142371602373621  0.6265853915793188
  0.8535875974519990  0.6190571207764258  0.7911382028068938
  0.7853952062752839  0.7393672438602961  0.7597594329819929
  0.8809939203906801  0.5680577891797891  0.6382538736031060
  0.9357846353714748  0.6251575460155934  0.2205302792168936
  0.9361682843830675  0.6547503027894596  0.6552773632451275
  0.8401859212560787  0.5464670006961004  0.3420358385957805
  0.9167014443083911  0.5213369170731663  0.2088617971931063
  0.8619107293275960  0.4642371602373621  0.6265853915793188
  0.8535875974519990  0.3690571207764258  0.7911382028068938
  0.7853952062752839  0.4893672438602961  0.7597594329819929
  0.8809939203906800  0.3180577891797892  0.6382538736031060
  0.9361682843830675  0.4047503027894596  0.6552773632451275
  0.8970153718371988  0.3106872818194600  0.8354471887724252
  0.8886922399616015  0.4655072423585237  1.0000000000000000
  0.8204998487848864  0.3358173654423940  0.9686212301750993
  0.9160985629002826  0.4145079107618870  0.8471156707962124
  0.9712729268926703  0.2512004243715574  0.8641391604382338
  0.7720153718371986  0.3106872818194599  0.8354471887724251
  0.7636922399616017  0.4655072423585237  1.0000000000000000
  0.9454998487848864  0.3358173654423940  0.9686212301750993
  0.7910985629002825  0.4145079107618869  0.8471156707962125
  0.8462729268926703  0.2512004243715575  0.8641391604382338
  0.7565968017987884  0.6748867954910683  0.0000000000000001
  0.9982736699231912  0.5797067560301321  0.1645528112275749
  0.9300812787464763  0.7000168791140025  0.1331740414026741
  0.7756799928618723  0.5287074244334954  0.0116684820237873
  0.8308543568542599  0.6153999380431660  0.0286919716658087
  0.8815968017987884  0.6748867954910682  0.0000000000000000
  0.8732736699231913  0.5797067560301321  0.1645528112275750
  0.8050812787464762  0.7000168791140025  0.1331740414026741
  0.9006799928618723  0.5287074244334955  0.0116684820237873
  0.9558543568542600  0.6153999380431660  0.0286919716658087
  0.9083783124327940  0.6761568776122301  0.3734146084206811
  0.8970153718371989  0.5606872818194600  0.8354471887724252
  0.8886922399616017  0.7155072423585237  1.0000000000000000
  0.8204998487848864  0.5858173654423940  0.9686212301750993
  0.8458892778810774  0.9716076675976911  0.4293920764099998
  0.9010636418734651  0.8083001812073617  0.4464155660520212
  0.9518060868179934  0.8677870386552641  0.4177235943862126
  0.9434829549423964  0.7726069991943280  0.5822764056137876
  0.8752905637656813  0.8929171222781981  0.5508976357888867
  0.9708892778810775  0.9716076675976911  0.4293920764099998
  0.7760636418734651  0.8083001812073617  0.4464155660520212
  0.9869107293275962  0.9642371602373621  0.6265853915793189
  0.9785875974519990  0.8690571207764257  0.7911382028068938
  0.9103952062752839  0.9893672438602961  0.7597594329819930
  0.7559939203906800  0.8180577891797890  0.6382538736031060
  0.8111682843830677  0.9047503027894596  0.6552773632451274
  0.8619107293275960  0.9642371602373621  0.6265853915793188
  0.8535875974519990  0.8690571207764257  0.7911382028068938
  0.7853952062752839  0.9893672438602961  0.7597594329819929
  0.8809939203906800  0.8180577891797891  0.6382538736031060
  0.9361682843830675  0.9047503027894596  0.6552773632451275
  0.8970153718371988  0.8106872818194599  0.8354471887724252
  0.8886922399616017  0.9655072423585237  1.0000000000000000
  0.8204998487848864  0.8358173654423939  0.9686212301750993
  0.9160985629002826  0.9145079107618870  0.8471156707962124
  0.9712729268926703  0.7512004243715574  0.8641391604382338
  0.7720153718371986  0.8106872818194598  0.8354471887724251
  0.7636922399616017  0.9655072423585237  1.0000000000000000
  0.9454998487848865  0.8358173654423939  0.9686212301750993
  0.7502905637656813  0.8929171222781984  0.5508976357888868
  0.8184829549423964  0.7726069991943277  0.5822764056137876
  0.8268060868179935  0.8677870386552642  0.4177235943862127
  0.8659589993638624  0.9618500596252638  0.2375537688589150
  0.9160985629002826  0.6645079107618870  0.8471156707962124
  0.9712729268926704  0.5012004243715574  0.8641391604382338
  0.7720153718371987  0.5606872818194599  0.8354471887724251
  0.7636922399616017  0.7155072423585237  1.0000000000000000
  0.9454998487848865  0.5858173654423940  0.9686212301750993
  0.7910985629002826  0.6645079107618870  0.8471156707962125
  0.8462729268926704  0.5012004243715575  0.8641391604382338
  0.7565968017987883  0.9248867954910683  0.0000000000000001
  0.9982736699231912  0.8297067560301321  0.1645528112275749
  0.9300812787464762  0.9500168791140025  0.1331740414026741
  0.7756799928618722  0.7787074244334954  0.0116684820237873
  0.8308543568542598  0.8653999380431658  0.0286919716658087
  0.8111682843830677  0.4047503027894596  0.6552773632451274
  0.8815968017987883  0.9248867954910683  0.0000000000000000
  0.8050812787464761  0.9500168791140025  0.1331740414026741
  0.9006799928618723  0.7787074244334955  0.0116684820237873
  0.9558543568542600  0.8653999380431661  0.0286919716658087
  0.9167014443083911  0.7713369170731663  0.2088617971931063
  0.9083783124327939  0.9261568776122301  0.3734146084206811
  0.8401859212560787  0.7964670006961004  0.3420358385957805
  0.9357846353714747  0.8751575460155934  0.2205302792168936
  0.9909589993638626  0.9618500596252638  0.2375537688589150
  0.7917014443083908  0.7713369170731662  0.2088617971931063
  0.7833783124327939  0.9261568776122301  0.3734146084206812
  0.9651859212560786  0.7964670006961003  0.3420358385957805
  0.8107846353714748  0.8751575460155934  0.2205302792168936
  0.8732736699231912  0.8297067560301321  0.1645528112275750
  0.5333783124327940  0.9261568776122301  0.3734146084206812
  0.7559939203906800  0.3180577891797891  0.6382538736031060
  0.9785875974519990  0.3690571207764258  0.7911382028068938
  0.6954998487848864  0.8358173654423939  0.9686212301750993
  0.5410985629002827  0.9145079107618869  0.8471156707962125
  0.5962729268926703  0.7512004243715575  0.8641391604382338
  0.7565968017987884  0.1748867954910684  0.0000000000000001
  0.9982736699231912  0.0797067560301322  0.1645528112275749
  0.9300812787464762  0.2000168791140025  0.1331740414026741
  0.7756799928618723  0.0287074244334955  0.0116684820237873
  0.8308543568542599  0.1153999380431660  0.0286919716658087
  0.8815968017987884  0.1748867954910683  0.0000000000000000
  0.8732736699231913  0.0797067560301321  0.1645528112275750
  0.8050812787464761  0.2000168791140025  0.1331740414026741
  0.9006799928618723  0.0287074244334955  0.0116684820237873
  0.9558543568542600  0.1153999380431660  0.0286919716658087
  0.9167014443083911  0.0213369170731663  0.2088617971931063
  0.9083783124327939  0.1761568776122301  0.3734146084206811
  0.8401859212560787  0.0464670006961004  0.3420358385957805
  0.9357846353714749  0.1251575460155934  0.2205302792168936
  0.9909589993638627  0.2118500596252638  0.2375537688589150
  0.7917014443083910  0.0213369170731663  0.2088617971931063
  0.7833783124327939  0.1761568776122301  0.3734146084206812
  0.9651859212560787  0.0464670006961004  0.3420358385957805
  0.8107846353714749  0.1251575460155934  0.2205302792168936
  0.8659589993638627  0.2118500596252638  0.2375537688589150
  0.8268060868179936  0.1177870386552642  0.4177235943862127
  0.8184829549423964  0.0226069991943278  0.5822764056137876
  0.5136922399616017  0.9655072423585237  1.0000000000000000
  0.7502905637656813  0.1429171222781983  0.5508976357888868
  0.5220153718371986  0.8106872818194598  0.8354471887724251
  0.6660985629002827  0.9145079107618870  0.8471156707962124
  0.5607846353714748  0.8751575460155934  0.2205302792168936
  0.6159589993638627  0.9618500596252638  0.2375537688589150
  0.5768060868179936  0.8677870386552642  0.4177235943862127
  0.5684829549423965  0.7726069991943277  0.5822764056137876
  0.5002905637656813  0.8929171222781984  0.5508976357888868
  0.5958892778810774  0.9716076675976911  0.4293920764099998
  0.6510636418734653  0.8083001812073617  0.4464155660520212
  0.7018060868179934  0.8677870386552641  0.4177235943862126
  0.6934829549423965  0.7726069991943280  0.5822764056137876
  0.6252905637656814  0.8929171222781981  0.5508976357888867
  0.7208892778810776  0.9716076675976911  0.4293920764099998
  0.5260636418734652  0.8083001812073617  0.4464155660520212
  0.7369107293275963  0.9642371602373621  0.6265853915793189
  0.7285875974519991  0.8690571207764257  0.7911382028068938
  0.6603952062752840  0.9893672438602961  0.7597594329819930
  0.5059939203906800  0.8180577891797890  0.6382538736031060
  0.5611682843830677  0.9047503027894596  0.6552773632451274
  0.6119107293275962  0.9642371602373621  0.6265853915793188
  0.6035875974519991  0.8690571207764257  0.7911382028068938
  0.5353952062752839  0.9893672438602961  0.7597594329819929
  0.6309939203906800  0.8180577891797891  0.6382538736031060
  0.6861682843830675  0.9047503027894596  0.6552773632451275
  0.6470153718371989  0.8106872818194599  0.8354471887724252
  0.6386922399616016  0.9655072423585237  1.0000000000000000
  0.5704998487848865  0.8358173654423939  0.9686212301750993
  0.7212729268926703  0.7512004243715574  0.8641391604382338
  0.8458892778810774  0.2216076675976912  0.4293920764099998
  0.9010636418734652  0.0583001812073617  0.4464155660520212
  0.9518060868179934  0.1177870386552641  0.4177235943862126
  0.8732736699231912  0.3297067560301321  0.1645528112275750
  0.8050812787464759  0.4500168791140025  0.1331740414026741
  0.9006799928618722  0.2787074244334954  0.0116684820237873
  0.9558543568542600  0.3653999380431660  0.0286919716658087
  0.9167014443083910  0.2713369170731663  0.2088617971931063
  0.9083783124327939  0.4261568776122301  0.3734146084206811
  0.8401859212560786  0.2964670006961004  0.3420358385957805
  0.9357846353714748  0.3751575460155934  0.2205302792168936
  0.9909589993638626  0.4618500596252638  0.2375537688589150
  0.7917014443083908  0.2713369170731663  0.2088617971931063
  0.7833783124327939  0.4261568776122301  0.3734146084206812
  0.9651859212560786  0.2964670006961004  0.3420358385957805
  0.8107846353714748  0.3751575460155934  0.2205302792168936
  0.8659589993638626  0.4618500596252638  0.2375537688589150
  0.8268060868179935  0.3677870386552642  0.4177235943862127
  0.8184829549423964  0.2726069991943278  0.5822764056137876
  0.7502905637656813  0.3929171222781984  0.5508976357888868
  0.8458892778810774  0.4716076675976912  0.4293920764099998
  0.9010636418734651  0.3083001812073617  0.4464155660520212
  0.9518060868179934  0.3677870386552641  0.4177235943862126
  0.9434829549423964  0.2726069991943280  0.5822764056137876
  0.8752905637656813  0.3929171222781982  0.5508976357888867
  0.9708892778810775  0.4716076675976912  0.4293920764099998
  0.7760636418734651  0.3083001812073617  0.4464155660520212
  0.9869107293275962  0.4642371602373621  0.6265853915793189
  0.8815968017987883  0.4248867954910683  0.0000000000000000
  0.8308543568542598  0.3653999380431659  0.0286919716658087
  0.7756799928618722  0.2787074244334954  0.0116684820237873
  0.9300812787464761  0.4500168791140025  0.1331740414026741
  0.9434829549423965  0.0226069991943281  0.5822764056137876
  0.8752905637656813  0.1429171222781982  0.5508976357888867
  0.9708892778810775  0.2216076675976912  0.4293920764099998
  0.7760636418734652  0.0583001812073617  0.4464155660520212
  0.9869107293275962  0.2142371602373621  0.6265853915793189
  0.9785875974519990  0.1190571207764258  0.7911382028068938
  0.9103952062752840  0.2393672438602961  0.7597594329819930
  0.7559939203906800  0.0680577891797891  0.6382538736031060
  0.8111682843830677  0.1547503027894595  0.6552773632451274
  0.8619107293275960  0.2142371602373621  0.6265853915793188
  0.8535875974519990  0.1190571207764258  0.7911382028068938
  0.7853952062752839  0.2393672438602961  0.7597594329819929
  0.9103952062752840  0.4893672438602961  0.7597594329819930
  0.8809939203906800  0.0680577891797892  0.6382538736031060
  0.8970153718371988  0.0606872818194600  0.8354471887724252
  0.8886922399616016  0.2155072423585237  1.0000000000000000
  0.8204998487848864  0.0858173654423940  0.9686212301750993
  0.9160985629002826  0.1645079107618870  0.8471156707962124
  0.9712729268926704  0.0012004243715574  0.8641391604382338
  0.7720153718371986  0.0606872818194599  0.8354471887724251
  0.7636922399616017  0.2155072423585237  1.0000000000000000
  0.9454998487848864  0.0858173654423940  0.9686212301750993
  0.7910985629002826  0.1645079107618869  0.8471156707962125
  0.8462729268926704  0.0012004243715575  0.8641391604382338
  0.7565968017987883  0.4248867954910684  0.0000000000000001
  0.9982736699231912  0.3297067560301322  0.1645528112275749
  0.9361682843830675  0.1547503027894596  0.6552773632451275
  0.4103952062752840  0.7393672438602961  0.7597594329819930
  0.8462729268926703  0.7512004243715575  0.8641391604382338
  0.4869107293275963  0.7142371602373622  0.6265853915793189
  0.1861682843830677  0.6547503027894596  0.6552773632451275
  0.1470153718371989  0.5606872818194600  0.8354471887724252
  0.1386922399616017  0.7155072423585237  1.0000000000000000
  0.0704998487848865  0.5858173654423940  0.9686212301750993
  0.1660985629002827  0.6645079107618870  0.8471156707962124
  0.2212729268926704  0.5012004243715574  0.8641391604382338
  0.0220153718371987  0.5606872818194599  0.8354471887724251
  0.0136922399616017  0.7155072423585237  1.0000000000000000
  0.1954998487848865  0.5858173654423940  0.9686212301750993
  0.0410985629002827  0.6645079107618870  0.8471156707962125
  0.0962729268926704  0.5012004243715575  0.8641391604382338
  0.0065968017987884  0.9248867954910683  0.0000000000000001
  0.2482736699231914  0.8297067560301321  0.1645528112275749
  0.1800812787464762  0.9500168791140025  0.1331740414026741
  0.0256799928618724  0.7787074244334954  0.0116684820237873
  0.0808543568542600  0.8653999380431658  0.0286919716658087
  0.1315968017987884  0.9248867954910683  0.0000000000000000
  0.1232736699231913  0.8297067560301321  0.1645528112275750